21
1 0 17
2 0 27
2 1 47
3 0 33
3 1 50
3 2 10
4 0 50
4 1 16
4 2 41
4 3 14
5 0 13
5 1 1
5 2 10
5 3 21
5 4 28
6 0 42
6 1 37
6 2 11
6 3 53
6 4 10
6 5 58
7 0 19
7 1 44
7 2 30
7 3 54
7 4 27
7 5 36
7 6 12
8 0 30
8 1 26
8 2 52
8 3 46
8 4 48
8 5 3
8 6 3
8 7 5
9 0 17
9 1 59
9 2 47
9 3 51
9 4 50
9 5 24
9 6 38
9 7 41
9 8 36
10 0 52
10 1 37
10 2 53
10 3 2
10 4 36
10 5 46
10 6 48
10 7 13
10 8 28
10 9 40
11 0 26
11 1 36
11 2 54
11 3 50
11 4 34
11 5 20
11 6 57
11 7 33
11 8 45
11 9 47
11 10 57
12 0 27
12 1 41
12 2 35
12 3 33
12 4 49
12 5 4
12 6 33
12 7 13
12 8 34
12 9 55
12 10 15
12 11 15
13 0 29
13 1 36
13 2 13
13 3 8
13 4 47
13 5 36
13 6 44
13 7 32
13 8 23
13 9 29
13 10 57
13 11 30
13 12 29
14 0 24
14 1 53
14 2 33
14 3 12
14 4 29
14 5 10
14 6 38
14 7 17
14 8 50
14 9 55
14 10 18
14 11 23
14 12 41
14 13 55
15 0 35
15 1 13
15 2 21
15 3 7
15 4 12
15 5 47
15 6 49
15 7 6
15 8 17
15 9 13
15 10 5
15 11 55
15 12 44
15 13 5
15 14 41
16 0 36
16 1 48
16 2 23
16 3 60
16 4 4
16 5 31
16 6 7
16 7 11
16 8 27
16 9 17
16 10 35
16 11 56
16 12 56
16 13 21
16 14 42
16 15 24
17 0 38
17 1 16
17 2 46
17 3 55
17 4 2
17 5 41
17 6 41
17 7 22
17 8 11
17 9 34
17 10 35
17 11 24
17 12 41
17 13 11
17 14 16
17 15 49
17 16 48
18 0 23
18 1 50
18 2 46
18 3 45
18 4 39
18 5 36
18 6 39
18 7 40
18 8 20
18 9 7
18 10 48
18 11 46
18 12 58
18 13 46
18 14 25
18 15 59
18 16 25
18 17 23
19 0 20
19 1 53
19 2 29
19 3 52
19 4 24
19 5 38
19 6 57
19 7 40
19 8 53
19 9 22
19 10 26
19 11 37
19 12 52
19 13 24
19 14 32
19 15 38
19 16 39
19 17 49
19 18 49
20 0 59
20 1 50
20 2 33
20 3 57
20 4 25
20 5 12
20 6 1
20 7 6
20 8 18
20 9 56
20 10 55
20 11 1
20 12 18
20 13 38
20 14 34
20 15 41
20 16 36
20 17 1
20 18 11
20 19 26
